p cnf 19 7
e 1 2 0
a 3 0
e 4 0
a 5 6 7 0
e 8 0
a 9 10 0
e 11 12 13 0
a 14 15 0
e 16 17 0
a 18 19 0
-14 -8 -18 19 0
-16 -15 8 3 -13 0
3 12 -14 -10 15 0
-18 7 -2 1 0
5 18 -12 -1 -17 0
8 19 -11 17 0
9 5 0
